1 50 104909 718 3 858 813 4040 67 2973 1501 543 465 1080 531 2926 216 3006 436 302 1023 4279 822 1344 1622 4752 1110 4885 1018 145 159 140 1397 2734 925 3297 845 3652 360 2427 1098 445 722 2713 159 3999 1264 2529 534 3449 57 3282 1684 2597 600 648 54 4260 1207 847 1028 2739 630 944 1082 4887 1152 3950 299 4681 106 4161 1492 347 636 1466 1177 3702 292 4385 954 1171 354 3372 615 1487 1538 2745 1698 3141 1717 4776 384 2936 1552 2674 1498 991 388 4754 769 2958 121
